presolving:
(round 1, fast)       120 del vars, 0 del conss, 0 add conss, 9120 chg bounds, 0 chg sides, 0 chg coeffs, 0 upgd conss, 0 impls, 0 clqs
(round 2, fast)       120 del vars, 0 del conss, 0 add conss, 9120 chg bounds, 120 chg sides, 0 chg coeffs, 0 upgd conss, 0 impls, 0 clqs
(round 3, fast)       120 del vars, 0 del conss, 0 add conss, 9270 chg bounds, 120 chg sides, 0 chg coeffs, 0 upgd conss, 0 impls, 0 clqs
(round 4, fast)       195 del vars, 75 del conss, 0 add conss, 9270 chg bounds, 120 chg sides, 0 chg coeffs, 0 upgd conss, 0 impls, 0 clqs
(round 5, fast)       270 del vars, 75 del conss, 0 add conss, 9270 chg bounds, 120 chg sides, 0 chg coeffs, 0 upgd conss, 0 impls, 0 clqs
   (0.1s) running MILP presolver
   (0.1s) MILP presolver found nothing
   (0.1s) probing: 51/75 (68.0%) - 0 fixings, 0 aggregations, 0 implications, 0 bound changes
   (0.1s) probing aborted: 50/50 successive totally useless probings
   (0.1s) symmetry computation started: requiring (bin +, int -, cont +), (fixed: bin -, int +, cont -)
   (0.1s) no symmetry present
   (0.1s) symmetry computation started: requiring (bin +, int +, cont +), (fixed: bin -, int -, cont -)
   (0.1s) no symmetry present
presolving (6 rounds: 6 fast, 1 medium, 1 exhaustive):
 270 deleted vars, 75 deleted constraints, 0 added constraints, 9270 tightened bounds, 0 added holes, 120 changed sides, 0 changed coefficients
 0 implications, 0 cliques
presolved problem has 9075 variables (75 bin, 9000 int, 0 impl, 0 cont) and 195 constraints
    195 constraints of type <linear>
Presolving Time: 0.13

 time | node  | left  |LP iter|LP it/n|mem/heur|mdpt |vars |cons |rows |cuts |sepa|confs|strbr|  dualbound   | primalbound  |  gap   | compl. 
t 0.2s|     1 |     0 |     0 |     - | trivial|   0 |9075 | 195 |   0 |   0 |  0 |   0 |   0 |-4.102552e+09 | 5.436262e+07 |    Inf | unknown
  0.3s|     1 |     0 |  2184 |     - |    55M |   0 |9075 | 195 | 195 |   0 |  0 |   0 |   0 |-1.097045e+06 | 5.436262e+07 |    Inf | unknown
r 0.3s|     1 |     0 |  2184 |     - |simplero|   0 |9075 | 195 | 195 |   0 |  0 |   0 |   0 |-1.097045e+06 |-1.056523e+06 |   3.84%| unknown
  1.7s|     1 |     0 |  2269 |     - |    57M |   0 |9075 | 195 | 210 |  15 |  1 |   0 |   0 |-1.094976e+06 |-1.056523e+06 |   3.64%| unknown
r 1.7s|     1 |     0 |  2269 |     - |simplero|   0 |9075 | 195 | 210 |  15 |  1 |   0 |   0 |-1.094976e+06 |-1.076913e+06 |   1.68%| unknown
i 1.7s|     1 |     0 |  2269 |     - |  oneopt|   0 |9075 | 195 | 210 |  15 |  1 |   0 |   0 |-1.094976e+06 |-1.087409e+06 |   0.70%| unknown
  1.8s|     1 |     0 |  2277 |     - |    58M |   0 |9075 | 195 | 213 |  18 |  3 |   0 |   0 |-1.094952e+06 |-1.087409e+06 |   0.69%| unknown
  1.9s|     1 |     0 |  2286 |     - |    58M |   0 |9075 | 195 | 216 |  21 |  4 |   0 |   0 |-1.094927e+06 |-1.087409e+06 |   0.69%| unknown
  2.0s|     1 |     0 |  2299 |     - |    59M |   0 |9075 | 195 | 219 |  24 |  5 |   0 |   0 |-1.094874e+06 |-1.087409e+06 |   0.69%| unknown
  2.0s|     1 |     0 |  2300 |     - |    59M |   0 |9075 | 195 | 220 |  25 |  6 |   0 |   0 |-1.094874e+06 |-1.087409e+06 |   0.69%| unknown
d 2.3s|     1 |     0 |  2928 |     - |farkasdi|   0 |9075 | 195 | 220 |   0 |  8 |   0 |   0 |-1.094874e+06 |-1.088840e+06 |   0.55%| unknown
d 2.3s|     1 |     0 |  2932 |     - |farkasdi|   0 |9075 | 195 | 220 |   0 |  8 |   0 |   0 |-1.094874e+06 |-1.089420e+06 |   0.50%| unknown
d 2.3s|     1 |     0 |  2942 |     - |farkasdi|   0 |9075 | 195 | 220 |   0 |  8 |   0 |   0 |-1.094874e+06 |-1.089431e+06 |   0.50%| unknown
d 2.3s|     1 |     0 |  2946 |     - |farkasdi|   0 |9075 | 195 | 220 |   0 |  8 |   0 |   0 |-1.094874e+06 |-1.091281e+06 |   0.33%| unknown
  2.9s|     1 |     0 |  3087 |     - |    69M |   0 |9075 | 195 | 220 |  25 |  8 |   0 |   0 |-1.094874e+06 |-1.091281e+06 |   0.33%| unknown
 time | node  | left  |LP iter|LP it/n|mem/heur|mdpt |vars |cons |rows |cuts |sepa|confs|strbr|  dualbound   | primalbound  |  gap   | compl. 
  3.0s|     1 |     0 |  3091 |     - |    69M |   0 |9075 | 195 | 221 |  26 |  9 |   0 |   0 |-1.094874e+06 |-1.091281e+06 |   0.33%| unknown
  3.0s|     1 |     0 |  3093 |     - |    69M |   0 |9075 | 195 | 222 |  27 | 10 |   0 |   0 |-1.094874e+06 |-1.091281e+06 |   0.33%| unknown
  3.2s|     1 |     2 |  3093 |     - |    72M |   0 |9075 | 195 | 222 |  27 | 10 |   0 |  11 |-1.094860e+06 |-1.091281e+06 |   0.33%| unknown
r 4.6s|    20 |    16 |  3977 |  87.9 |simplero|   9 |9075 | 195 | 215 |  27 |  0 |   0 |  11 |-1.094856e+06 |-1.094286e+06 |   0.05%| unknown
  9.1s|   100 |    90 |  5957 |  36.9 |   106M |  16 |9075 | 203 | 217 |  47 |  1 |  20 |  17 |-1.094823e+06 |-1.094286e+06 |   0.05%| unknown
 13.7s|   200 |   176 |  8286 |  30.1 |   132M |  17 |9075 | 219 | 218 |  63 |  0 |  36 |  17 |-1.094804e+06 |-1.094286e+06 |   0.05%| unknown
r14.6s|   216 |   166 |  8789 |  30.2 |simplero|  17 |9075 | 219 | 215 |  65 |  0 |  36 |  17 |-1.094803e+06 |-1.094407e+06 |   0.04%|   5.30%
 19.1s|   300 |   166 | 12412 |  33.8 |   156M |  17 |9075 | 244 | 216 |  77 |  2 |  61 |  17 |-1.094784e+06 |-1.094407e+06 |   0.03%|  22.36%
 25.1s|   400 |   178 | 14332 |  30.1 |   182M |  18 |9075 | 283 | 216 | 113 |  2 | 100 |  19 |-1.094776e+06 |-1.094407e+06 |   0.03%|  35.78%
 30.7s|   500 |   155 | 16772 |  29.0 |   207M |  18 |9075 | 309 | 218 | 149 |  3 | 126 |  19 |-1.094774e+06 |-1.094407e+06 |   0.03%|  61.51%
 35.2s|   600 |   141 | 18526 |  27.1 |   228M |  18 |9075 | 311 | 217 | 163 |  0 | 129 |  19 |-1.094696e+06 |-1.094407e+06 |   0.03%|  77.92%
 39.4s|   700 |   119 | 19354 |  24.4 |   239M |  18 |9075 | 321 | 215 | 168 |  0 | 139 |  19 |-1.094679e+06 |-1.094407e+06 |   0.02%|  81.96%
 44.1s|   800 |    38 | 19950 |  22.1 |   245M |  18 |9075 | 332 | 222 | 180 |  0 | 150 |  19 |-1.094563e+06 |-1.094407e+06 |   0.01%|  95.34%

SCIP Status        : problem is solved [optimal solution found]
Solving Time (sec) : 45.26
Solving Nodes      : 837
Primal Bound       : -1.09440671319859e+06 (365 solutions)
Dual Bound         : -1.09440671319859e+06
Gap                : 0.00 %
Solve Status: optimal
Solve Time: 45.26 seconds
